NAME : portcgen-17-27
COMMENT : portcgen N=17, seed=27
TYPE : TSP
DIMENSION : 17
EDGE_WEIGHT_TYPE : EUC_2D
NODE_COORD_SECTION
1 -8977 468210
2 20931 -83315
3 -57902 278555
4 148352 243157
5 -70557 140592
6 -20392 -116891
7 -308743 141153
8 -43868 266218
9 86013 152520
10 -18844 127269
11 -224086 -319616
12 -319056 -325358
13 48453 -61669
14 58028 -265367
15 -139818 139078
16 248985 -147866
17 321123 193241
